qe/outputs/qe/qe_queries_cbrdelay/T=5,eliminate=[I_0,I_1,I_2,I_3,I_4,L_3,L_4,B].smt2
; benchmark generated from python API
(set-info :status unknown)
(declare-fun S_0 () Real)
(declare-fun S_4 () Real)
(declare-fun C () Real)
(declare-fun A_0 () Real)
(declare-fun L_0 () Real)
(declare-fun A_3 () Real)
(declare-fun L_2 () Real)
(declare-fun S_1 () Real)
(declare-fun S_2 () Real)
(declare-fun S_3 () Real)
(declare-fun L_1 () Real)
(declare-fun A_1 () Real)
(declare-fun A_4 () Real)
(declare-fun A_2 () Real)
(assert
 (let (($x34 (>= L_0 0.0)))
 (let (($x465 (>= C 5.0)))
 (let ((?x664 (* (- 2.0) C)))
 (let ((?x349 (* (- 1.0) A_1)))
 (let ((?x337 (* (- 1.0) A_4)))
 (let ((?x445 (* (- 1.0) L_1)))
 (let ((?x447 (+ L_0 ?x445)))
 (let (($x1607 (<= 0.0 ?x447)))
 (let (($x7356 (<= (+ ?x337 A_3 (* (- 1.0) A_2) ?x349 (* 2.0 L_1) S_4 S_0) 0.0)))
 (let ((?x399 (* (- 1.0) C)))
 (let ((?x7348 (* 2.0 L_1)))
 (let ((?x345 (* (- 1.0) A_2)))
 (let (($x12787 (or $x1607 (<= (+ ?x337 A_3 ?x345 ?x349 ?x7348 ?x399 S_4 S_1) 0.0))))
 (let ((?x9809 (+ ?x349 L_1 C S_0)))
 (let (($x10122 (<= 0.0 ?x9809)))
 (let (($x10148 (not $x10122)))
 (let (($x10117 (<= (+ (* (- 1.0) L_0) A_1 (* 2.0 C) (* (- 1.0) S_4)) 0.0)))
 (let (($x3368 (<= (+ (* (- 1.0) L_2) A_3 (* (- 1.0) S_4)) 0.0)))
 (let (($x296 (<= (+ A_2 ?x349 ?x399) 0.0)))
 (let (($x10001 (<= (+ (* 3.0 C) (* (- 1.0) S_4) S_0) 0.0)))
 (let (($x9959 (<= (+ A_2 ?x445 C (* (- 1.0) S_4)) 0.0)))
 (let ((?x506 (* (- 1.0) L_0)))
 (let ((?x10140 (+ ?x506 ?x345 A_1 C L_2)))
 (let (($x10163 (<= 0.0 ?x10140)))
 (let (($x10188 (not $x10163)))
 (let (($x9866 (<= (+ (* 2.0 C) (* (- 1.0) S_3) S_0) 0.0)))
 (let (($x1603 (not $x1607)))
 (let (($x13062 (or (not (<= 0.0 (+ ?x399 A_2 (* (- 1.0) L_2) ?x349 L_0))) (not (<= ?x9809 (- 5.0))) $x9866)))
 (let (($x10141 (<= ?x10140 (- 5.0))))
 (let (($x10158 (not $x10141)))
 (let (($x10132 (<= (+ ?x506 A_1 C (* (- 1.0) S_3)) 0.0)))
 (let (($x10126 (<= ?x9809 0.0)))
 (let (($x1893 (<= 0.0 (+ (* (- 1.0) L_2) L_1))))
 (let ((?x9722 (+ C ?x345 L_2 S_1)))
 (let (($x9723 (<= 0.0 ?x9722)))
 (let (($x10067 (or $x3368 (<= (+ (* 2.0 C) (* (- 1.0) S_4) S_1) 0.0) $x9723)))
 (let (($x9721 (<= 0.0 (+ ?x399 A_2 (* (- 1.0) L_2) ?x349 L_0))))
 (let (($x7549 (or $x1607 $x1893 (= (+ ?x399 A_2 (* (- 1.0) L_2) L_1 ?x349) 0.0))))
 (let (($x96 (>= S_1 S_0)))
 (let (($x99 (>= S_2 S_1)))
 (let (($x102 (>= S_3 S_2)))
 (let (($x105 (>= S_4 S_3)))
 (let (($x107 (>= A_1 A_0)))
 (let (($x108 (>= A_2 A_1)))
 (let (($x109 (>= A_3 A_2)))
 (let (($x110 (>= A_4 A_3)))
 (and $x110 $x109 $x108 $x107 $x105 $x102 $x99 $x96 (<= (+ L_0 ?x345 S_2) 0.0) (or (= L_0 L_1) $x1603) (<= (+ (* (- 3.0) C) S_4 (* (- 1.0) S_2)) 0.0) (<= (+ (* (- 4.0) C) S_4 (* (- 1.0) S_1)) 0.0) (or (= L_1 L_2) (not $x1893)) $x7549 (or $x1607 (<= (+ ?x349 ?x664 L_1 S_3) (- 5.0))) (<= (+ L_0 ?x349 S_1) 0.0) (<= (+ L_0 (* (- 1.0) A_3) S_3) 0.0) (<= (+ ?x664 S_3 (* (- 1.0) S_2)) 0.0) (or $x1893 (<= (+ ?x345 L_2 S_2) (- 5.0))) (or $x1603 $x1893 $x9721) (or $x1893 (<= ?x9722 (- 5.0))) (or $x1893 (<= (+ ?x664 ?x345 L_2 S_4) (- 5.0))) (or $x1607 (<= (+ ?x349 L_1 S_1) (- 5.0))) (or $x1607 (<= ?x9809 (- 5.0))) (or $x1607 (<= (+ ?x349 ?x399 L_1 S_2) (- 5.0))) (<= (+ ?x345 L_1 S_2) 0.0) (or $x296 $x1607 (not $x1893)) (or $x1607 (<= (+ ?x349 (* (- 3.0) C) L_1 S_4) (- 5.0))) (or $x1607 (<= (+ A_2 ?x445 (* (- 1.0) S_3)) 0.0) $x9866) (or (<= (+ C (* (- 1.0) S_3) S_1) 0.0) $x9723) (or (<= (+ A_2 ?x445 (* (- 1.0) S_3)) 0.0) (not $x9723)) (or (<= (+ C (* (- 1.0) S_4) S_2) 0.0) $x3368) (<= (+ L_2 (* (- 1.0) A_3) S_3) 0.0) $x10067 (or $x1893 (<= (+ ?x399 ?x345 L_2 S_3) (- 5.0))) (or $x1893 (<= (+ ?x399 ?x345 L_2 ?x337 A_3 S_4) 0.0)) (<= (+ L_0 ?x349 ?x399 S_2) 0.0) (or (<= (+ ?x506 A_1 (* (- 1.0) S_2)) 0.0) $x10126) (or (<= (+ C (* (- 1.0) S_2) S_0) 0.0) $x10122) (or (<= (+ C (* (- 1.0) S_2) S_0) 0.0) (not $x10126)) (or $x1893 (<= (+ (* 2.0 C) ?x345 L_2 S_0) (- 5.0)) $x10122) (or $x10126 $x10132 $x10158) (or $x3368 $x10117 $x10126 $x10158) (or $x9866 $x10132 $x10163) (or $x1893 $x3368 $x10001 $x10122) (or $x1893 $x10141 $x10148) $x13062 (or $x3368 $x10001 (not $x10126) $x10158) (<= (+ ?x345 L_1 ?x664 S_4) 0.0) (or $x3368 (not $x9723) $x9959) (or (<= (+ ?x506 A_2 (* (- 1.0) S_3)) 0.0) $x1603 $x9866 $x10188) (<= (+ L_0 ?x349 (* (- 3.0) C) S_4) 0.0) (<= (+ L_2 ?x337 S_4) 0.0) (<= (+ ?x345 L_1 ?x399 S_3) 0.0) (or $x3368 $x9959 $x10001 $x10188) (<= (+ L_0 ?x349 ?x664 S_3) 0.0) (or $x3368 $x9959 $x10001 $x10122) (or $x296 $x3368 $x10117 $x10148) $x12787 (or $x1607 $x7356) (or $x1607 (<= (+ ?x337 A_3 ?x349 ?x664 L_1 S_4) 0.0)) $x465 $x34 (<= (+ L_0 (* (- 1.0) A_0) S_0) 0.0) (<= (+ ?x664 S_4 (* (- 1.0) S_3)) 0.0) (<= (+ (* (- 3.0) C) S_2 (* (- 1.0) S_0)) 0.0) (<= (+ (* (- 4.0) C) S_3 (* (- 1.0) S_0)) 0.0) (<= (+ ?x399 L_0 (* (- 1.0) A_0) S_1) 0.0) (<= (+ ?x664 S_1 (* (- 1.0) S_0)) 0.0) (<= (+ (* (- 3.0) C) S_3 (* (- 1.0) S_1)) 0.0) (<= (+ ?x664 L_0 (* (- 1.0) A_0) S_2) 0.0) (<= (+ L_0 (* (- 1.0) A_0) (* (- 3.0) C) S_3) 0.0) (<= (+ ?x664 S_2 (* (- 1.0) S_1)) 0.0) (<= (+ ?x399 L_2 (* (- 1.0) A_3) S_4) 0.0) (<= (+ L_0 (* (- 1.0) A_0) (* (- 4.0) C) S_4) 0.0) (<= (+ (* (- 5.0) C) S_4 (* (- 1.0) S_0)) 0.0)))))))))))))))))))))))))))))))))))))))))))))))))
(check-sat)
