qe/outputs/qe/qe_queries_cbrdelay/T=5,eliminate=[I_0,I_1,I_2,I_3,I_4,L_3,L_4,B].smt2.z3
[And(A_4 >= A_3,
     A_3 >= A_2,
     A_2 >= A_1,
     A_1 >= A_0,
     S_4 >= S_3,
     S_3 >= S_2,
     S_2 >= S_1,
     S_1 >= S_0,
     L_0 + -1*A_2 + S_2 <= 0,
     Or(L_0 == L_1, Not(0 <= L_0 + -1*L_1)),
     -3*C + S_4 + -1*S_2 <= 0,
     -4*C + S_4 + -1*S_1 <= 0,
     Or(L_1 == L_2, Not(0 <= -1*L_2 + L_1)),
     Or(0 <= L_0 + -1*L_1,
        0 <= -1*L_2 + L_1,
        -1*C + A_2 + -1*L_2 + L_1 + -1*A_1 == 0),
     Or(0 <= L_0 + -1*L_1, -1*A_1 + -2*C + L_1 + S_3 <= -5),
     L_0 + -1*A_1 + S_1 <= 0,
     L_0 + -1*A_3 + S_3 <= 0,
     -2*C + S_3 + -1*S_2 <= 0,
     Or(0 <= -1*L_2 + L_1, -1*A_2 + L_2 + S_2 <= -5),
     Or(Not(0 <= L_0 + -1*L_1),
        0 <= -1*L_2 + L_1,
        0 <= -1*C + A_2 + -1*L_2 + -1*A_1 + L_0),
     Or(0 <= -1*L_2 + L_1, C + -1*A_2 + L_2 + S_1 <= -5),
     Or(0 <= -1*L_2 + L_1, -2*C + -1*A_2 + L_2 + S_4 <= -5),
     Or(0 <= L_0 + -1*L_1, -1*A_1 + L_1 + S_1 <= -5),
     Or(0 <= L_0 + -1*L_1, -1*A_1 + L_1 + C + S_0 <= -5),
     Or(0 <= L_0 + -1*L_1, -1*A_1 + -1*C + L_1 + S_2 <= -5),
     -1*A_2 + L_1 + S_2 <= 0,
     Or(A_2 + -1*A_1 + -1*C <= 0,
        0 <= L_0 + -1*L_1,
        Not(0 <= -1*L_2 + L_1)),
     Or(0 <= L_0 + -1*L_1, -1*A_1 + -3*C + L_1 + S_4 <= -5),
     Or(0 <= L_0 + -1*L_1,
        A_2 + -1*L_1 + -1*S_3 <= 0,
        2*C + -1*S_3 + S_0 <= 0),
     Or(C + -1*S_3 + S_1 <= 0, 0 <= C + -1*A_2 + L_2 + S_1),
     Or(A_2 + -1*L_1 + -1*S_3 <= 0,
        Not(0 <= C + -1*A_2 + L_2 + S_1)),
     Or(C + -1*S_4 + S_2 <= 0, -1*L_2 + A_3 + -1*S_4 <= 0),
     L_2 + -1*A_3 + S_3 <= 0,
     Or(-1*L_2 + A_3 + -1*S_4 <= 0,
        2*C + -1*S_4 + S_1 <= 0,
        0 <= C + -1*A_2 + L_2 + S_1),
     Or(0 <= -1*L_2 + L_1, -1*C + -1*A_2 + L_2 + S_3 <= -5),
     Or(0 <= -1*L_2 + L_1,
        -1*C + -1*A_2 + L_2 + -1*A_4 + A_3 + S_4 <= 0),
     L_0 + -1*A_1 + -1*C + S_2 <= 0,
     Or(-1*L_0 + A_1 + -1*S_2 <= 0,
        -1*A_1 + L_1 + C + S_0 <= 0),
     Or(C + -1*S_2 + S_0 <= 0, 0 <= -1*A_1 + L_1 + C + S_0),
     Or(C + -1*S_2 + S_0 <= 0,
        Not(-1*A_1 + L_1 + C + S_0 <= 0)),
     Or(0 <= -1*L_2 + L_1,
        2*C + -1*A_2 + L_2 + S_0 <= -5,
        0 <= -1*A_1 + L_1 + C + S_0),
     Or(-1*A_1 + L_1 + C + S_0 <= 0,
        -1*L_0 + A_1 + C + -1*S_3 <= 0,
        Not(-1*L_0 + -1*A_2 + A_1 + C + L_2 <= -5)),
     Or(-1*L_2 + A_3 + -1*S_4 <= 0,
        -1*L_0 + A_1 + 2*C + -1*S_4 <= 0,
        -1*A_1 + L_1 + C + S_0 <= 0,
        Not(-1*L_0 + -1*A_2 + A_1 + C + L_2 <= -5)),
     Or(2*C + -1*S_3 + S_0 <= 0,
        -1*L_0 + A_1 + C + -1*S_3 <= 0,
        0 <= -1*L_0 + -1*A_2 + A_1 + C + L_2),
     Or(0 <= -1*L_2 + L_1,
        -1*L_2 + A_3 + -1*S_4 <= 0,
        3*C + -1*S_4 + S_0 <= 0,
        0 <= -1*A_1 + L_1 + C + S_0),
     Or(0 <= -1*L_2 + L_1,
        -1*L_0 + -1*A_2 + A_1 + C + L_2 <= -5,
        Not(0 <= -1*A_1 + L_1 + C + S_0)),
     Or(Not(0 <= -1*C + A_2 + -1*L_2 + -1*A_1 + L_0),
        Not(-1*A_1 + L_1 + C + S_0 <= -5),
        2*C + -1*S_3 + S_0 <= 0),
     Or(-1*L_2 + A_3 + -1*S_4 <= 0,
        3*C + -1*S_4 + S_0 <= 0,
        Not(-1*A_1 + L_1 + C + S_0 <= 0),
        Not(-1*L_0 + -1*A_2 + A_1 + C + L_2 <= -5)),
     -1*A_2 + L_1 + -2*C + S_4 <= 0,
     Or(-1*L_2 + A_3 + -1*S_4 <= 0,
        Not(0 <= C + -1*A_2 + L_2 + S_1),
        A_2 + -1*L_1 + C + -1*S_4 <= 0),
     Or(-1*L_0 + A_2 + -1*S_3 <= 0,
        Not(0 <= L_0 + -1*L_1),
        2*C + -1*S_3 + S_0 <= 0,
        Not(0 <= -1*L_0 + -1*A_2 + A_1 + C + L_2)),
     L_0 + -1*A_1 + -3*C + S_4 <= 0,
     L_2 + -1*A_4 + S_4 <= 0,
     -1*A_2 + L_1 + -1*C + S_3 <= 0,
     Or(-1*L_2 + A_3 + -1*S_4 <= 0,
        A_2 + -1*L_1 + C + -1*S_4 <= 0,
        3*C + -1*S_4 + S_0 <= 0,
        Not(0 <= -1*L_0 + -1*A_2 + A_1 + C + L_2)),
     L_0 + -1*A_1 + -2*C + S_3 <= 0,
     Or(-1*L_2 + A_3 + -1*S_4 <= 0,
        A_2 + -1*L_1 + C + -1*S_4 <= 0,
        3*C + -1*S_4 + S_0 <= 0,
        0 <= -1*A_1 + L_1 + C + S_0),
     Or(A_2 + -1*A_1 + -1*C <= 0,
        -1*L_2 + A_3 + -1*S_4 <= 0,
        -1*L_0 + A_1 + 2*C + -1*S_4 <= 0,
        Not(0 <= -1*A_1 + L_1 + C + S_0)),
     Or(0 <= L_0 + -1*L_1,
        -1*A_4 +
        A_3 +
        -1*A_2 +
        -1*A_1 +
        2*L_1 +
        -1*C +
        S_4 +
        S_1 <=
        0),
     Or(0 <= L_0 + -1*L_1,
        -1*A_4 + A_3 + -1*A_2 + -1*A_1 + 2*L_1 + S_4 + S_0 <=
        0),
     Or(0 <= L_0 + -1*L_1,
        -1*A_4 + A_3 + -1*A_1 + -2*C + L_1 + S_4 <= 0),
     C >= 5,
     L_0 >= 0,
     L_0 + -1*A_0 + S_0 <= 0,
     -2*C + S_4 + -1*S_3 <= 0,
     -3*C + S_2 + -1*S_0 <= 0,
     -4*C + S_3 + -1*S_0 <= 0,
     -1*C + L_0 + -1*A_0 + S_1 <= 0,
     -2*C + S_1 + -1*S_0 <= 0,
     -3*C + S_3 + -1*S_1 <= 0,
     -2*C + L_0 + -1*A_0 + S_2 <= 0,
     L_0 + -1*A_0 + -3*C + S_3 <= 0,
     -2*C + S_2 + -1*S_1 <= 0,
     -1*C + L_2 + -1*A_3 + S_4 <= 0,
     L_0 + -1*A_0 + -4*C + S_4 <= 0,
     -5*C + S_4 + -1*S_0 <= 0)]